; benchmark generated from python API
(set-info :status unknown)
(declare-datatypes ((RealState 0)) (((RMk1 (rval1 Real)) (RMk2 (rval2 Real)))))
 (declare-fun I1uscore1dollarskuscore530 () Real)
(declare-fun ep () Real)
(declare-fun V () Real)
(declare-fun v2uscore1dollarskuscore530 () Real)
(declare-fun v1uscore1dollarskuscore530 () Real)
(declare-fun t1908uscore0 () Real)
(declare-fun A () Real)
(declare-fun v2 () Real)
(declare-fun v1 () Real)
(declare-fun B () Real)
(declare-fun x2 () Real)
(declare-fun xI2 () Real)
(declare-fun I2 () Real)
(declare-fun x1 () Real)
(declare-fun xI1 () Real)
(declare-fun I1 () Real)
(declare-fun x2uscore1dollarskuscore376 () Real)
(declare-fun I2uscore1dollarskuscore530 () Real)
(declare-fun x1uscore1dollarskuscore337 () Real)
(assert
 (let (($x144 (exists ((ts1908uscore0_st RealState) (val!21 Real) )(let (($x85 (= I1uscore1dollarskuscore530 2.0)))
 (let (($x145 (or $x85 (= 2.0 2.0))))
 (let (($x170 (and (>= v1uscore1dollarskuscore530 0.0) (<= v1uscore1dollarskuscore530 V))))
 (let (($x219 (and (and $x170 (>= v2uscore1dollarskuscore530 0.0)) (<= v2uscore1dollarskuscore530 V))))
 (let (($x92 (=> (and (<= 0.0 (rval2 ts1908uscore0_st)) (<= (rval2 ts1908uscore0_st) t1908uscore0)) (and $x219 (<= (+ (rval2 ts1908uscore0_st) 0.0) ep)))))
 (let (($x224 (>= t1908uscore0 0.0)))
 (let (($x195 (and (= v2uscore1dollarskuscore530 V) (= xI2 x2uscore1dollarskuscore376))))
 (let (($x152 (and (and $x195 (= v1uscore1dollarskuscore530 V)) (= xI1 x1uscore1dollarskuscore337))))
 (let (($x153 (and (and $x152 (= I2uscore1dollarskuscore530 1.0)) (< xI2 x2uscore1dollarskuscore376))))
 (let (($x207 (and (and (and (and $x153 $x85) (= I1 2.0)) (< xI1 x1)) (= I2 2.0))))
 (let (($x23 (and (and (and $x207 (< xI2 x2)) (> B 0.0)) (>= v1 0.0))))
 (let (($x230 (and (and (and (and $x23 (<= v1 V)) (>= v2 0.0)) (<= v2 V)) (>= A 0.0))))
 (let (($x215 (and (and $x230 (> V 0.0)) (> ep 0.0))))
 (let (($x94 (not (= ts1908uscore0_st (RMk1 val!21)))))
 (and $x94 (=> (and $x215 $x224 $x92) $x145)))))))))))))))))
 ))
 (not $x144)))
(check-sat)
